benchmarks_CP/INST_36x36/55/inst36x36_55_16.dzn
S=6;
start=[|
35,	-1,	-1,	7,	-1,	-1,	2,	30,	-1,	18,	6,	14,	26,	-1,	4,	15,	-1,	-1,	23,	33,	9,	-1,	3,	10,	-1,	-1,	21,	25,	-1,	27,	-1,	12,	20,	32,	-1,	-1|
33,	30,	-1,	24,	-1,	26,	4,	25,	28,	29,	-1,	-1,	-1,	-1,	3,	-1,	20,	34,	-1,	-1,	8,	-1,	-1,	36,	6,	23,	14,	32,	12,	9,	-1,	-1,	-1,	19,	11,	-1|
2,	9,	8,	18,	25,	-1,	-1,	-1,	20,	33,	-1,	3,	-1,	29,	-1,	28,	-1,	-1,	-1,	4,	26,	-1,	11,	17,	35,	-1,	22,	-1,	-1,	-1,	10,	-1,	-1,	6,	7,	23|
-1,	11,	15,	-1,	23,	-1,	-1,	36,	-1,	-1,	8,	26,	10,	24,	-1,	-1,	-1,	-1,	-1,	-1,	6,	-1,	-1,	1,	33,	-1,	30,	-1,	29,	-1,	25,	4,	14,	-1,	27,	18|
6,	10,	-1,	27,	-1,	-1,	-1,	7,	23,	24,	-1,	-1,	-1,	-1,	32,	-1,	-1,	-1,	14,	31,	-1,	35,	-1,	22,	-1,	-1,	18,	2,	8,	-1,	-1,	36,	-1,	-1,	3,	1|
-1,	-1,	34,	20,	32,	12,	-1,	-1,	16,	11,	-1,	5,	-1,	14,	6,	-1,	18,	-1,	25,	-1,	7,	-1,	-1,	-1,	-1,	36,	28,	4,	3,	-1,	33,	-1,	-1,	-1,	8,	15|
-1,	36,	-1,	29,	-1,	-1,	-1,	-1,	-1,	13,	19,	-1,	-1,	25,	-1,	-1,	-1,	-1,	30,	1,	-1,	-1,	20,	15,	-1,	17,	27,	9,	-1,	3,	7,	28,	5,	-1,	-1,	34|
26,	32,	-1,	-1,	7,	-1,	-1,	-1,	-1,	16,	-1,	-1,	-1,	36,	-1,	-1,	-1,	27,	-1,	10,	-1,	-1,	28,	-1,	-1,	25,	12,	-1,	14,	34,	30,	-1,	18,	3,	19,	-1|
17,	-1,	-1,	-1,	19,	15,	-1,	-1,	-1,	31,	-1,	35,	32,	13,	30,	7,	-1,	-1,	-1,	29,	-1,	34,	18,	9,	24,	-1,	1,	5,	2,	23,	4,	22,	11,	-1,	-1,	20|
-1,	-1,	35,	-1,	28,	13,	29,	4,	7,	-1,	36,	9,	-1,	-1,	17,	3,	19,	18,	24,	-1,	-1,	-1,	26,	5,	22,	-1,	-1,	10,	-1,	21,	6,	27,	16,	15,	2,	33|
-1,	-1,	-1,	30,	11,	4,	22,	-1,	-1,	25,	28,	18,	-1,	10,	23,	9,	-1,	-1,	19,	-1,	-1,	16,	17,	12,	-1,	-1,	26,	36,	20,	-1,	13,	-1,	21,	1,	-1,	14|
-1,	23,	-1,	14,	18,	10,	30,	20,	11,	2,	26,	-1,	-1,	-1,	-1,	-1,	-1,	-1,	-1,	25,	33,	-1,	35,	13,	19,	28,	16,	8,	-1,	7,	-1,	-1,	29,	-1,	-1,	-1|
-1,	-1,	-1,	-1,	-1,	-1,	-1,	24,	-1,	-1,	15,	-1,	-1,	18,	-1,	12,	-1,	-1,	33,	34,	23,	-1,	-1,	26,	29,	-1,	-1,	16,	21,	-1,	11,	-1,	-1,	27,	13,	3|
8,	-1,	5,	22,	20,	-1,	7,	-1,	2,	6,	-1,	23,	16,	21,	10,	-1,	30,	26,	27,	32,	-1,	9,	-1,	-1,	36,	18,	-1,	33,	-1,	-1,	-1,	25,	17,	12,	28,	19|
-1,	-1,	30,	-1,	3,	23,	-1,	18,	-1,	9,	5,	-1,	6,	2,	-1,	32,	4,	25,	10,	36,	24,	-1,	21,	28,	1,	-1,	20,	-1,	26,	17,	14,	-1,	33,	-1,	35,	-1|
-1,	34,	17,	-1,	-1,	1,	35,	-1,	-1,	-1,	20,	-1,	-1,	9,	-1,	19,	-1,	-1,	-1,	-1,	-1,	-1,	-1,	7,	-1,	-1,	5,	-1,	-1,	28,	26,	6,	2,	23,	-1,	21|
-1,	-1,	-1,	28,	26,	29,	-1,	34,	33,	-1,	-1,	32,	-1,	-1,	-1,	20,	7,	17,	11,	5,	18,	25,	-1,	19,	-1,	-1,	3,	-1,	6,	-1,	24,	10,	22,	16,	-1,	36|
18,	-1,	16,	25,	-1,	-1,	-1,	19,	-1,	-1,	11,	21,	34,	3,	-1,	23,	29,	-1,	-1,	30,	12,	17,	-1,	-1,	-1,	22,	-1,	-1,	10,	8,	-1,	-1,	-1,	-1,	-1,	-1|
-1,	28,	-1,	4,	30,	35,	-1,	9,	17,	32,	-1,	11,	-1,	16,	15,	22,	-1,	-1,	2,	6,	34,	7,	-1,	18,	-1,	29,	36,	-1,	5,	12,	-1,	-1,	-1,	10,	-1,	-1|
-1,	-1,	-1,	36,	-1,	-1,	-1,	-1,	18,	10,	13,	-1,	30,	32,	-1,	-1,	-1,	7,	3,	-1,	-1,	-1,	-1,	-1,	9,	11,	31,	-1,	-1,	-1,	-1,	-1,	-1,	2,	-1,	-1|
3,	-1,	9,	12,	-1,	-1,	-1,	35,	-1,	8,	-1,	36,	-1,	-1,	24,	-1,	-1,	14,	5,	13,	-1,	26,	-1,	31,	-1,	10,	-1,	-1,	19,	4,	-1,	1,	-1,	-1,	23,	-1|
-1,	26,	11,	-1,	-1,	19,	-1,	-1,	-1,	-1,	21,	-1,	23,	-1,	36,	18,	10,	12,	8,	15,	4,	22,	-1,	-1,	-1,	13,	-1,	17,	24,	35,	28,	9,	30,	33,	-1,	16|
7,	24,	6,	16,	-1,	-1,	5,	28,	34,	-1,	-1,	-1,	29,	1,	2,	26,	3,	33,	9,	12,	36,	10,	-1,	21,	-1,	15,	8,	18,	23,	14,	-1,	11,	31,	20,	22,	-1|
-1,	-1,	32,	23,	10,	-1,	-1,	26,	29,	-1,	-1,	-1,	19,	-1,	-1,	34,	-1,	8,	20,	11,	35,	1,	-1,	-1,	-1,	-1,	-1,	22,	16,	-1,	-1,	17,	-1,	-1,	5,	-1|
10,	21,	18,	-1,	-1,	-1,	20,	5,	31,	36,	-1,	8,	-1,	23,	11,	-1,	-1,	-1,	34,	19,	15,	12,	-1,	3,	7,	-1,	-1,	26,	28,	32,	-1,	30,	6,	4,	-1,	-1|
28,	7,	-1,	3,	14,	24,	-1,	29,	1,	-1,	35,	-1,	21,	8,	22,	-1,	-1,	36,	-1,	-1,	5,	31,	-1,	-1,	-1,	-1,	9,	-1,	17,	25,	-1,	-1,	-1,	26,	32,	11|
31,	-1,	13,	-1,	17,	-1,	24,	32,	-1,	3,	25,	30,	27,	-1,	-1,	-1,	12,	9,	-1,	23,	-1,	2,	16,	20,	-1,	8,	-1,	11,	18,	-1,	-1,	19,	34,	28,	36,	10|
-1,	19,	22,	15,	-1,	34,	9,	-1,	-1,	17,	-1,	27,	-1,	-1,	31,	4,	-1,	5,	35,	-1,	-1,	-1,	-1,	11,	2,	12,	13,	30,	-1,	-1,	20,	3,	1,	8,	-1,	24|
30,	20,	36,	-1,	-1,	-1,	13,	-1,	-1,	-1,	16,	6,	1,	-1,	-1,	-1,	-1,	-1,	21,	-1,	28,	8,	-1,	-1,	-1,	-1,	29,	14,	34,	-1,	-1,	-1,	-1,	7,	-1,	5|
29,	4,	-1,	32,	-1,	-1,	10,	-1,	19,	22,	7,	28,	3,	34,	-1,	6,	-1,	2,	13,	14,	-1,	36,	25,	24,	-1,	1,	-1,	15,	-1,	5,	-1,	21,	9,	-1,	16,	27|
-1,	-1,	25,	10,	-1,	30,	26,	6,	24,	-1,	-1,	-1,	8,	-1,	19,	14,	35,	29,	-1,	-1,	-1,	-1,	36,	-1,	12,	4,	-1,	3,	-1,	-1,	2,	-1,	27,	11,	17,	28|
20,	8,	-1,	-1,	-1,	-1,	18,	23,	25,	-1,	-1,	13,	2,	-1,	34,	36,	-1,	31,	28,	-1,	14,	-1,	27,	29,	26,	-1,	-1,	6,	-1,	-1,	16,	-1,	7,	-1,	1,	-1|
12,	35,	-1,	-1,	1,	9,	-1,	-1,	30,	28,	33,	29,	4,	15,	-1,	-1,	-1,	24,	-1,	-1,	10,	-1,	5,	23,	-1,	-1,	32,	27,	-1,	16,	3,	18,	-1,	36,	-1,	6|
-1,	3,	23,	-1,	15,	18,	-1,	27,	-1,	1,	31,	-1,	-1,	-1,	12,	-1,	22,	-1,	-1,	24,	20,	-1,	-1,	34,	-1,	14,	17,	-1,	13,	19,	5,	29,	10,	21,	-1,	25|
-1,	16,	-1,	-1,	22,	-1,	14,	17,	9,	21,	-1,	-1,	5,	27,	1,	11,	-1,	10,	-1,	-1,	-1,	6,	12,	-1,	-1,	33,	25,	29,	-1,	18,	34,	-1,	26,	-1,	20,	32|
24,	29,	-1,	17,	27,	6,	-1,	-1,	-1,	-1,	-1,	-1,	18,	30,	-1,	-1,	26,	3,	-1,	9,	25,	32,	31,	33,	-1,	2,	10,	35,	7,	-1,	-1,	14,	-1,	-1,	4,	8|];
